(declare-const a Real)
(declare-const b Real)
(declare-const c Real)
(assert (= (+ a b c) 3))
(assert (> a 0))
(assert (> b 0))
(assert (> c 0))
(assert (not (<= (+ (* -1520 a (pow c 4)) (* -1520 b (pow a 4)) (* -1490 c (pow b 4)) (* -304 a (pow b 4)) (* -304 b (pow c 4)) (* -280 (pow a 2) (pow c 3)) (* -280 (pow a 3) (pow b 2)) (* -274 c (pow a 4)) (* 60 c (+ (* (/ 1 32) (pow (+ (* 2 a) (* 2 b)) 3)) (* (/ 1 4096) (pow (+ (* 2 a) (* 2 b)) 6)))) (* 200 (pow b 3) (pow c 2)) (* 280 (pow a 2) (pow b 3)) (* 280 (pow b 2) (pow c 3)) (* 760 (pow a 3) (pow c 2)) (* 1344 a b (pow c 3)) (* 1464 a c (pow b 3)) (* 1464 b c (pow a 3))) 0)))
(check-sat)
(get-model)
(exit)